Cost: 308
0-12-39-9-40-17-0
0-34-52-27-13-15-29-45-30-4-0
0-2-28-22-1-43-23-33-6-0
0-46-8-19-14-53-11-10-26-0
Cost: 308
0-26-10-11-53-14-19-8-46-0
0-12-39-9-40-17-0
0-4-30-45-29-15-13-27-52-34-0
0-6-33-23-43-1-22-28-2-0
Cost: 308
0-12-39-9-40-17-0
0-34-52-27-13-15-29-45-30-4-0
0-2-28-22-1-43-23-33-6-0
0-46-8-19-14-53-11-10-26-0
Cost: 308
0-12-39-9-40-17-0
0-34-52-27-13-15-29-45-30-4-0
0-2-28-22-1-43-23-33-6-0
0-46-8-19-14-53-11-10-26-0
Cost: 308
0-12-39-9-40-17-0
0-34-52-27-13-15-29-45-30-4-0
0-2-28-22-1-43-23-33-6-0
0-46-8-19-14-53-11-10-26-0
Cost: 308
0-12-39-9-40-17-0
0-34-52-27-13-15-29-45-30-4-0
0-2-28-22-1-43-23-33-6-0
0-46-8-19-14-53-11-10-26-0
Cost: 308
0-12-39-9-40-17-0
0-34-52-27-13-15-29-45-30-4-0
0-2-28-22-1-43-23-33-6-0
0-46-8-19-14-53-11-10-26-0
Cost: 308
0-12-39-9-40-17-0
0-34-52-27-13-15-29-45-30-4-0
0-2-28-22-1-43-23-33-6-0
0-46-8-19-14-53-11-10-26-0
Cost: 308
0-12-39-9-40-17-0
0-34-52-27-13-15-29-45-30-4-0
0-2-28-22-1-43-23-33-6-0
0-46-8-19-14-53-11-10-26-0
Cost: 308
0-12-39-9-40-17-0
0-34-52-27-13-15-29-45-30-4-0
0-2-28-22-1-43-23-33-6-0
0-46-8-19-14-53-11-10-26-0
Cost: 308
0-6-33-23-43-1-22-28-2-0
0-46-8-19-14-53-11-10-26-0
0-12-39-9-40-17-0
0-4-30-45-29-15-13-27-52-34-0
Cost: 308
0-6-33-23-43-1-22-28-2-0
0-46-8-19-14-53-11-10-26-0
0-12-39-9-40-17-0
0-4-30-45-29-15-13-27-52-34-0
Cost: 308
0-6-33-23-43-1-22-28-2-0
0-46-8-19-14-53-11-10-26-0
0-12-39-9-40-17-0
0-4-30-45-29-15-13-27-52-34-0
Cost: 308
0-6-33-23-43-1-22-28-2-0
0-46-8-19-14-53-11-10-26-0
0-12-39-9-40-17-0
0-4-30-45-29-15-13-27-52-34-0
Cost: 308
0-6-33-23-43-1-22-28-2-0
0-46-8-19-14-53-11-10-26-0
0-12-39-9-40-17-0
0-4-30-45-29-15-13-27-52-34-0
Cost: 308
0-6-33-23-43-1-22-28-2-0
0-46-8-19-14-53-11-10-26-0
0-12-39-9-40-17-0
0-4-30-45-29-15-13-27-52-34-0
Cost: 308
0-6-33-23-43-1-22-28-2-0
0-46-8-19-14-53-11-10-26-0
0-12-39-9-40-17-0
0-4-30-45-29-15-13-27-52-34-0
Cost: 308
0-6-33-23-43-1-22-28-2-0
0-46-8-19-14-53-11-10-26-0
0-12-39-9-40-17-0
0-4-30-45-29-15-13-27-52-34-0
Cost: 308
0-6-33-23-43-1-22-28-2-0
0-46-8-19-14-53-11-10-26-0
0-12-39-9-40-17-0
0-4-30-45-29-15-13-27-52-34-0
Cost: 308
0-6-33-23-43-1-22-28-2-0
0-46-8-19-14-53-11-10-26-0
0-12-39-9-40-17-0
0-4-30-45-29-15-13-27-52-34-0
Cost: 308
0-6-33-23-43-1-22-28-2-0
0-46-8-19-14-53-11-10-26-0
0-12-39-9-40-17-0
0-4-30-45-29-15-13-27-52-34-0
Cost: 308
0-6-33-23-43-1-22-28-2-0
0-46-8-19-14-53-11-10-26-0
0-12-39-9-40-17-0
0-4-30-45-29-15-13-27-52-34-0
Cost: 308
0-26-10-11-53-14-19-8-46-0
0-12-39-9-40-17-0
0-34-52-27-13-15-29-45-30-4-0
0-6-33-23-43-1-22-28-2-0
Cost: 308
0-6-33-23-43-1-22-28-2-0
0-46-8-19-14-53-11-10-26-0
0-12-39-9-40-17-0
0-4-30-45-29-15-13-27-52-34-0
Cost: 308
0-6-33-23-43-1-22-28-2-0
0-46-8-19-14-53-11-10-26-0
0-12-39-9-40-17-0
0-4-30-45-29-15-13-27-52-34-0
Cost: 308
0-6-33-23-43-1-22-28-2-0
0-46-8-19-14-53-11-10-26-0
0-12-39-9-40-17-0
0-4-30-45-29-15-13-27-52-34-0
Cost: 308
0-17-40-9-39-12-0
0-46-8-19-14-53-11-10-26-0
0-2-28-22-1-43-23-33-6-0
0-34-52-27-13-15-29-45-30-4-0
Cost: 308
0-4-30-45-29-15-13-27-52-34-0
0-12-39-9-40-17-0
0-6-33-23-43-1-22-28-2-0
0-26-10-11-53-14-19-8-46-0
Cost: 308
0-46-8-19-14-53-11-10-26-0
0-17-40-9-39-12-0
0-34-52-27-13-15-29-45-30-4-0
0-2-28-22-1-43-23-33-6-0
Cost: 308
0-4-30-45-29-15-13-27-52-34-0
0-2-28-22-1-43-23-33-6-0
0-17-40-9-39-12-0
0-46-8-19-14-53-11-10-26-0
Cost: 308
0-34-52-27-13-15-29-45-30-4-0
0-46-8-19-14-53-11-10-26-0
0-6-33-23-43-1-22-28-2-0
0-12-39-9-40-17-0
